p wcnf 164 246 247 
1 158 -54 0 
1 25 36 0 
1 134 -36 0 
1 -138 12 0 
1 -14 -142 0 
1 157 68 0 
1 98 64 0 
1 36 130 0 
1 -144 -53 0 
1 -148 143 0 
1 97 112 0 
1 -98 62 0 
1 -78 64 0 
1 -3 141 0 
1 -148 45 0 
1 -121 89 0 
1 -27 30 0 
1 -73 -32 0 
1 64 -97 0 
1 -139 49 0 
1 53 123 0 
1 88 -104 0 
1 -56 -1 0 
1 -148 -37 0 
1 -141 -125 0 
1 22 152 0 
1 -29 -82 0 
1 112 161 0 
1 64 -106 0 
1 -114 66 0 
1 110 123 0 
1 -69 -22 0 
1 60 142 0 
1 39 139 0 
1 -25 -115 0 
1 59 -17 0 
1 83 -110 0 
1 118 -41 0 
1 -147 75 0 
1 87 -129 0 
1 125 -89 0 
1 149 -61 0 
1 -97 161 0 
1 5 -18 0 
1 -158 23 0 
1 82 -13 0 
1 108 19 0 
1 58 -150 0 
1 -71 52 0 
1 -89 146 0 
1 134 93 0 
1 3 -120 0 
1 -127 -126 0 
1 -36 -19 0 
1 -68 -114 0 
1 -116 -56 0 
1 23 142 0 
1 -134 -67 0 
1 -151 15 0 
1 53 -29 0 
1 -60 -106 0 
1 137 -135 0 
1 52 158 0 
1 63 125 0 
1 -71 -137 0 
1 164 23 0 
1 51 -38 0 
1 78 130 0 
1 -12 36 0 
1 -52 102 0 
1 93 -20 0 
1 14 37 0 
1 26 -74 0 
1 -145 -125 0 
1 -90 146 0 
1 -30 38 0 
1 -16 -95 0 
1 -155 -21 0 
1 118 146 0 
1 -50 155 0 
1 -136 -86 0 
1 -164 -80 0 
1 -119 22 0 
1 -65 63 0 
1 74 -66 0 
1 -34 144 0 
1 -91 85 0 
1 40 -162 0 
1 97 66 0 
1 -96 -56 0 
1 102 -143 0 
1 50 -72 0 
1 -43 -154 0 
1 58 -88 0 
1 150 11 0 
1 -27 -162 0 
1 -154 109 0 
1 -27 -141 0 
1 161 -103 0 
1 -84 -129 0 
1 -151 -75 0 
1 -72 -98 0 
1 35 12 0 
1 -103 161 0 
1 -132 -13 0 
1 67 138 0 
1 36 -120 0 
1 -139 100 0 
1 25 -46 0 
1 84 -39 0 
1 -101 19 0 
1 -13 135 0 
1 38 -25 0 
1 -117 34 0 
1 -71 -92 0 
1 -103 -21 0 
1 -68 -78 0 
1 157 -79 0 
1 135 120 0 
1 -153 10 0 
1 25 153 0 
1 147 -152 0 
1 79 84 0 
1 -139 -144 0 
1 130 -27 0 
1 -145 -30 0 
1 56 -121 0 
1 -92 139 0 
1 -143 -120 0 
1 101 -42 0 
1 -117 91 0 
1 44 149 0 
1 56 122 0 
1 -139 -129 0 
1 9 -33 0 
1 22 18 0 
1 140 114 0 
1 -4 -59 0 
1 3 -63 0 
1 56 -57 0 
1 61 -93 0 
1 -50 150 0 
1 75 -96 0 
1 -119 -112 0 
1 22 101 0 
1 122 8 0 
1 -156 103 0 
1 -40 -130 0 
1 -88 -129 0 
1 -30 62 0 
1 -14 -127 0 
1 52 129 0 
1 -29 7 0 
1 -154 -18 0 
1 -50 -14 0 
1 -150 -30 0 
1 80 -17 0 
1 146 -12 0 
1 -128 -88 0 
1 -162 -156 0 
1 133 -53 0 
1 -130 98 0 
1 -164 36 0 
1 -39 -161 0 
1 -72 -156 0 
1 119 67 0 
1 -113 152 0 
1 18 48 0 
1 -78 -65 0 
1 26 15 0 
1 98 7 0 
1 -19 157 0 
1 87 97 0 
1 122 -92 0 
1 -163 50 0 
1 -134 8 0 
1 -75 132 0 
1 -119 -13 0 
1 152 -71 0 
1 -87 -142 0 
1 -108 160 0 
1 -4 -134 0 
1 -77 127 0 
1 -134 114 0 
1 -123 -38 0 
1 -37 -24 0 
1 156 -19 0 
1 -40 -23 0 
1 6 -94 0 
1 151 17 0 
1 116 -63 0 
1 145 49 0 
1 -145 -64 0 
1 147 153 0 
1 100 45 0 
1 -161 -117 0 
1 161 157 0 
1 -22 -52 0 
1 117 141 0 
1 -55 -71 0 
1 13 108 0 
1 52 -134 0 
1 -36 48 0 
1 164 -28 0 
1 -47 -101 0 
1 -164 110 0 
1 75 -90 0 
1 129 81 0 
1 4 32 0 
1 139 -75 0 
1 -13 100 0 
1 95 82 0 
1 36 73 0 
1 -54 87 0 
1 -103 154 0 
1 -115 -43 0 
1 74 9 0 
1 58 -125 0 
1 41 -15 0 
1 -101 44 0 
1 54 -83 0 
1 22 -64 0 
1 128 46 0 
1 -9 157 0 
1 153 -34 0 
1 107 -150 0 
1 -59 53 0 
1 137 -160 0 
1 -50 35 0 
1 -14 -61 0 
1 -103 45 0 
1 48 -148 0 
1 -5 -162 0 
1 77 -8 0 
1 153 11 0 
1 -25 -13 0 
1 108 -77 0 
1 76 151 0 
1 -118 -138 0 
1 -95 116 0 
1 117 89 0 
1 -101 125 0 
1 -146 83 0 
1 76 -77 0 
1 103 -15 0 
1 2 -60 0 
